(set-logic HORN)
(declare-fun state (Int Int Int (Array Int Int) (Array Int Int) (Array Int Int) (Array Int Int) Int Int Int Int (Array Int Int) (Array Int Int) Int Int Int Int Int Int Int Int Int Int Int Int Int Int Int Int Int Int Int Int Int Int Int Int Bool Bool Bool Bool (Array Int Int) Int Int) Bool)
(assert (forall ((|A_8| Int) (|B_8| Int) (|C_8| Int) (|D_8| (Array Int Int)) (|E_8| (Array Int Int)) (|F_8| (Array Int Int)) (|G_8| (Array Int Int)) (|H_8| Int) (|I_8| Int) (|J_8| Int) (|K_8| Int) (|L_8| (Array Int Int)) (|M_8| (Array Int Int)) (|N_8| Int) (|O_8| Int) (|P_8| Int) (|Q_8| Int) (|R_8| Int) (|S_8| Int) (|T_8| Int) (|U_8| Int) (|V_8| Int) (|W_8| Int) (|X_8| Int) (|Y_8| Int) (|Z_8| Int) (|A1_8| Int) (|B1_8| Int) (|C1_8| Int) (|D1_8| Int) (|E1_8| Int) (|F1_8| Int) (|G1_8| Int) (|H1_8| Int) (|I1_8| Int) (|J1_8| Int) (|K1_8| Int) (|M1_4| Bool) (|.loc.4| Bool) (|.loc.5| Bool) (|.loc.6| Bool) (|N1_0| (Array Int Int)) (|M1_0| Int) (|O1_0| Int) (|.x.321| Int) (|.x.319| (Array Int Int)) (|.x.317| Int) (|.x.315| Int) (|.x.313| (Array Int Int)) (|.x.311| (Array Int Int)) (|.x.307| Int) (|.x.309| Int) (|.x.310| (Array Int Int)) (|L1_8| Bool) (|.x.323| Int) (|.x.328| Int) (|.x.334| Int) (|.x.336| Int) (|.x.338| Int) (|.x.342| Int) (|.loc.8| Bool) (|.x.343| Int) (|.x.326| Int) (|.loc.9| Bool) (|.loc.7| Bool) (|.x.325| Int) (|.x.312| (Array Int Int)) (|.x.332| Int) (|.x.335| Int) (|.x.340| Int) (|.x.314| Int) (|.x.308| Int) (|.x.316| Int) (|.x.318| (Array Int Int)) (|.x.320| Int) (|.x.322| Int) (|.x.324| Int) (|.x.327| Int) (|.x.329| Int) (|.x.330| Int) (|.x.331| Int) (|.x.333| Int) (|.x.337| Int) (|.x.339| Int) (|.x.341| Int) (|.xtv.1| (Array Int Int)) (|.xtv.2| Int) (|.xtv.3| Int)) (=> (and (and (and .loc.4 (not .loc.5)) (not .loc.6)) (and (and (and (and (and (and (and (= F_8 G_8) (not M1_4)) (= B_8 C_8)) (= N_8 O_8)) (= H_8 I_8)) (= J_8 K_8)) (= L_8 M_8)) (= D_8 E_8))) (state |A_8| |B_8| |C_8| |D_8| |E_8| |F_8| |G_8| |H_8| |I_8| |J_8| |K_8| |L_8| |M_8| |N_8| |O_8| |P_8| |Q_8| |R_8| |S_8| |T_8| |U_8| |V_8| |W_8| |X_8| |Y_8| |Z_8| |A1_8| |B1_8| |C1_8| |D1_8| |E1_8| |F1_8| |G1_8| |H1_8| |I1_8| |J1_8| |K1_8| |M1_4| |.loc.4| |.loc.5| |.loc.6| |N1_0| |M1_0| |O1_0|))))
(assert (forall ((|A_8| Int) (|B_8| Int) (|C_8| Int) (|D_8| (Array Int Int)) (|E_8| (Array Int Int)) (|F_8| (Array Int Int)) (|G_8| (Array Int Int)) (|H_8| Int) (|I_8| Int) (|J_8| Int) (|K_8| Int) (|L_8| (Array Int Int)) (|M_8| (Array Int Int)) (|N_8| Int) (|O_8| Int) (|P_8| Int) (|Q_8| Int) (|R_8| Int) (|S_8| Int) (|T_8| Int) (|U_8| Int) (|V_8| Int) (|W_8| Int) (|X_8| Int) (|Y_8| Int) (|Z_8| Int) (|A1_8| Int) (|B1_8| Int) (|C1_8| Int) (|D1_8| Int) (|E1_8| Int) (|F1_8| Int) (|G1_8| Int) (|H1_8| Int) (|I1_8| Int) (|J1_8| Int) (|K1_8| Int) (|M1_4| Bool) (|.loc.4| Bool) (|.loc.5| Bool) (|.loc.6| Bool) (|N1_0| (Array Int Int)) (|M1_0| Int) (|O1_0| Int) (|.x.321| Int) (|.x.319| (Array Int Int)) (|.x.317| Int) (|.x.315| Int) (|.x.313| (Array Int Int)) (|.x.311| (Array Int Int)) (|.x.307| Int) (|.x.309| Int) (|.x.310| (Array Int Int)) (|L1_8| Bool) (|.x.323| Int) (|.x.328| Int) (|.x.334| Int) (|.x.336| Int) (|.x.338| Int) (|.x.342| Int) (|.loc.8| Bool) (|.x.343| Int) (|.x.326| Int) (|.loc.9| Bool) (|.loc.7| Bool) (|.x.325| Int) (|.x.312| (Array Int Int)) (|.x.332| Int) (|.x.335| Int) (|.x.340| Int) (|.x.314| Int) (|.x.308| Int) (|.x.316| Int) (|.x.318| (Array Int Int)) (|.x.320| Int) (|.x.322| Int) (|.x.324| Int) (|.x.327| Int) (|.x.329| Int) (|.x.330| Int) (|.x.331| Int) (|.x.333| Int) (|.x.337| Int) (|.x.339| Int) (|.x.341| Int) (|.xtv.1| (Array Int Int)) (|.xtv.2| Int) (|.xtv.3| Int)) (=> (and (state |A_8| |B_8| |C_8| |D_8| |E_8| |F_8| |G_8| |H_8| |I_8| |J_8| |K_8| |L_8| |M_8| |N_8| |O_8| |P_8| |Q_8| |R_8| |S_8| |T_8| |U_8| |V_8| |W_8| |X_8| |Y_8| |Z_8| |A1_8| |B1_8| |C1_8| |D1_8| |E1_8| |F1_8| |G1_8| |H1_8| |I1_8| |J1_8| |K1_8| |M1_4| |.loc.4| |.loc.5| |.loc.6| |N1_0| |M1_0| |O1_0|) (let ((.def_54 (not .loc.5))) (let ((.def_56 (not .loc.6))) (let ((.def_98 (= D_8 .x.310))) (let ((.def_102 (= Q_8 .x.323))) (let ((.def_105 (= V_8 .x.328))) (let ((.def_108 (= B1_8 .x.334))) (let ((.def_111 (= D1_8 .x.336))) (let ((.def_114 (= F1_8 .x.338))) (let ((.def_117 (= J1_8 .x.342))) (let ((.def_119 (not .loc.4))) (let ((.def_140 (= M1_4 L1_8))) (let ((.def_148 (= T_8 0))) (let ((.def_150 (and .def_98 .def_102))) (let ((.def_155 (and .def_117 (and .def_114 (and .def_111 (and .def_108 (and .def_105 .def_150))))))) (let ((.def_159 (not .loc.8))) (let ((.def_165 (= K1_8 .x.343))) (let ((.def_167 (= T_8 .x.326))) (let ((.def_172 (not .loc.7))) (let ((.def_182 (<= S_8 Y_8))) (let ((.def_184 (= P_8 Z_8))) (let ((.def_194 (not .loc.9))) (let ((.def_199 (= S_8 .x.325))) (let ((.def_201 (= F_8 .x.312))) (let ((.def_204 (= Z_8 .x.332))) (let ((.def_207 (= C1_8 .x.335))) (let ((.def_210 (= H1_8 .x.340))) (let ((.def_244 (= H_8 .x.314))) (let ((.def_246 (= B_8 .x.308))) (let ((.def_249 (= J_8 .x.316))) (let ((.def_252 (= L_8 .x.318))) (let ((.def_255 (= N_8 .x.320))) (let ((.def_258 (= P_8 .x.322))) (let ((.def_261 (= R_8 .x.324))) (let ((.def_264 (= U_8 .x.327))) (let ((.def_267 (= W_8 .x.329))) (let ((.def_270 (= X_8 .x.330))) (let ((.def_273 (= Y_8 .x.331))) (let ((.def_276 (= A1_8 .x.333))) (let ((.def_279 (= E1_8 .x.337))) (let ((.def_282 (= G1_8 .x.339))) (let ((.def_285 (= I1_8 .x.341))) (let ((.def_394 (and .def_165 (and .def_117 (and .def_285 (and .def_210 (and .def_282 (and .def_114 (and .def_279 (and .def_111 (and .def_207 (and .def_108 (and .def_276 (and .def_204 (and .def_273 (and .def_270 (and .def_267 (and .def_105 (and .def_264 (and .def_167 (and .def_199 (and .def_261 (and .def_102 (and .def_258 (and .def_255 (and .def_252 (and .def_249 (and .def_244 (and .def_201 (and .def_98 (and M1_4 .def_246))))))))))))))))))))))))))))))) (let ((.def_434 (and .def_165 (and .def_117 (and .def_285 (and .def_210 (and .def_282 (and .def_114 (and .def_279 (and .def_111 (and .def_207 (and .def_108 (and .def_276 (and .def_204 (and .def_273 (and .def_270 (and .def_267 (and .def_105 (and .def_264 (and .def_167 (and .def_199 (and .def_261 (and .def_102 (and .def_258 (and .def_255 (and .def_252 (and .def_249 (and .def_244 (and .def_201 (and .def_98 .def_246)))))))))))))))))))))))))))))) (and (and (= O_8 .x.321) (and (= M_8 .x.319) (and (= K_8 .x.317) (and (= I_8 .x.315) (and (= G_8 .x.313) (and (= E_8 .x.311) (and (= A_8 .x.307) (= C_8 .x.309)))))))) (or (or (or (or (or (and (or (and (or (and (or (and (or (and (and (and (and (and (and (and (and .def_98 L1_8) .def_102) .def_105) .def_108) .def_111) .def_114) .def_117) .def_119) (and (or M1_4 (= .x.328 0)) (and (and (or L1_8 (and (and (and (<= (- 2147483648) .x.328) (<= .x.328 2147483647)) (= .x.342 0)) (= .x.310 (store D_8 B1_8 0)))) (and .loc.4 (or L1_8 (= .x.338 .x.342)))) .def_140))) (and (and .loc.6 .def_54) .loc.8)) (and (or M1_4 .def_148) (and .def_56 (and (and .def_140 (and .loc.5 (and .loc.4 .def_155))) .def_159)))) (and (and (and .def_165 .def_167) .loc.9) .def_172)) (and (or M1_4 (and (= .x.343 .x.326) (and (and (= .x.343 (ite (and (<= S_8 B_8) (= J_8 Z_8)) 1 0)) .def_182) .def_184))) (and (and .def_56 (and .def_140 (and .loc.8 (and .loc.7 (and .def_119 (and .loc.5 .def_155)))))) .def_194))) (and (and (and (and .def_199 .def_201) .def_204) .def_207) .def_210)) (and (or M1_4 (= .x.312 (store F_8 Z_8 (store (select F_8 Z_8) S_8 1)))) (and (or L1_8 (and .def_204 (= (+ S_8 (* (- 1) .x.325)) (- 4)))) (and .def_194 (and .def_56 (and .def_140 (and .def_172 (and .loc.8 (and .def_54 (and .def_119 (and .def_165 (and .def_117 (and .def_114 (and .def_111 (and .def_108 (and .def_105 (and .def_150 .def_167))))))))))))))))) (and (and (and (and (and (and (and (and (and (and (and (and (and (and .def_244 .def_246) .def_249) .def_252) .def_255) .def_258) .def_261) .def_264) .def_267) .def_270) .def_273) .def_276) .def_279) .def_282) .def_285)) (and (or M1_4 (and (and (= O1_0 0) (and (= .x.314 0) (and (= M1_0 0) (= .x.320 0)))) (= N1_0 (store D_8 0 0)))) (and (or L1_8 (and (and (and (and (and (and (and (and (and (and (and (and (and (and (and (and (and (and (and (not (<= .x.307 .x.334)) (= (+ .x.323 (* (- 1) .x.308)) (- 4))) (= .x.334 .x.316)) (= .x.322 .x.324)) (= .x.323 0)) (= .x.324 .x.330)) (= .x.325 .x.329)) (= .x.323 .x.327)) (= .x.331 .x.339)) (= .x.334 .x.337)) (= .x.333 .x.339)) (= .x.332 .x.341)) (= .x.334 .x.330)) (= .x.337 .x.341)) (= (+ .x.323 (* (- 1) .x.333)) (- 28))) (= .x.327 .x.329)) (not (= .x.334 0))) (= (select N1_0 .x.334) 0)) (= .x.318 (store L_8 .x.334 8))) (= .x.310 (store N1_0 .x.334 1)))) (and .def_194 (and .def_56 (and .def_140 (and .def_172 (and .loc.8 (and .def_54 (and .loc.4 (and .def_165 (and .def_114 (and .def_167 .def_201))))))))))))) (and .def_56 (and .def_159 (and .def_140 (and .loc.9 (and .loc.7 (and .def_119 (and .loc.5 .def_394)))))))) (and (or (not .def_184) (or M1_4 (not .def_182))) (and .def_56 (and .def_159 (and .def_140 (and .loc.9 (and .loc.7 (and .def_119 (and .loc.5 .def_434))))))))) (and (or M1_4 (not .def_148)) (and .def_194 (and .def_56 (and .def_159 (and .def_140 (and .def_172 (and .loc.5 (and .loc.4 .def_434))))))))) (and .def_194 (and .def_159 (and .def_140 (and .def_172 (and .def_54 (and .def_119 (and .loc.6 .def_394))))))))))))))))))))))))))))))))))))))))))))))))))))) (state |.x.307| |.x.308| |.x.309| |.x.310| |.x.311| |.x.312| |.x.313| |.x.314| |.x.315| |.x.316| |.x.317| |.x.318| |.x.319| |.x.320| |.x.321| |.x.322| |.x.323| |.x.324| |.x.325| |.x.326| |.x.327| |.x.328| |.x.329| |.x.330| |.x.331| |.x.332| |.x.333| |.x.334| |.x.335| |.x.336| |.x.337| |.x.338| |.x.339| |.x.340| |.x.341| |.x.342| |.x.343| |L1_8| |.loc.7| |.loc.8| |.loc.9| |.xtv.1| |.xtv.2| |.xtv.3|))))
(assert (forall ((|A_8| Int) (|B_8| Int) (|C_8| Int) (|D_8| (Array Int Int)) (|E_8| (Array Int Int)) (|F_8| (Array Int Int)) (|G_8| (Array Int Int)) (|H_8| Int) (|I_8| Int) (|J_8| Int) (|K_8| Int) (|L_8| (Array Int Int)) (|M_8| (Array Int Int)) (|N_8| Int) (|O_8| Int) (|P_8| Int) (|Q_8| Int) (|R_8| Int) (|S_8| Int) (|T_8| Int) (|U_8| Int) (|V_8| Int) (|W_8| Int) (|X_8| Int) (|Y_8| Int) (|Z_8| Int) (|A1_8| Int) (|B1_8| Int) (|C1_8| Int) (|D1_8| Int) (|E1_8| Int) (|F1_8| Int) (|G1_8| Int) (|H1_8| Int) (|I1_8| Int) (|J1_8| Int) (|K1_8| Int) (|M1_4| Bool) (|.loc.4| Bool) (|.loc.5| Bool) (|.loc.6| Bool) (|N1_0| (Array Int Int)) (|M1_0| Int) (|O1_0| Int) (|.x.321| Int) (|.x.319| (Array Int Int)) (|.x.317| Int) (|.x.315| Int) (|.x.313| (Array Int Int)) (|.x.311| (Array Int Int)) (|.x.307| Int) (|.x.309| Int) (|.x.310| (Array Int Int)) (|L1_8| Bool) (|.x.323| Int) (|.x.328| Int) (|.x.334| Int) (|.x.336| Int) (|.x.338| Int) (|.x.342| Int) (|.loc.8| Bool) (|.x.343| Int) (|.x.326| Int) (|.loc.9| Bool) (|.loc.7| Bool) (|.x.325| Int) (|.x.312| (Array Int Int)) (|.x.332| Int) (|.x.335| Int) (|.x.340| Int) (|.x.314| Int) (|.x.308| Int) (|.x.316| Int) (|.x.318| (Array Int Int)) (|.x.320| Int) (|.x.322| Int) (|.x.324| Int) (|.x.327| Int) (|.x.329| Int) (|.x.330| Int) (|.x.331| Int) (|.x.333| Int) (|.x.337| Int) (|.x.339| Int) (|.x.341| Int) (|.xtv.1| (Array Int Int)) (|.xtv.2| Int) (|.xtv.3| Int)) (=> (state |A_8| |B_8| |C_8| |D_8| |E_8| |F_8| |G_8| |H_8| |I_8| |J_8| |K_8| |L_8| |M_8| |N_8| |O_8| |P_8| |Q_8| |R_8| |S_8| |T_8| |U_8| |V_8| |W_8| |X_8| |Y_8| |Z_8| |A1_8| |B1_8| |C1_8| |D1_8| |E1_8| |F1_8| |G1_8| |H1_8| |I1_8| |J1_8| |K1_8| |M1_4| |.loc.4| |.loc.5| |.loc.6| |N1_0| |M1_0| |O1_0|) (not (and M1_4 (and .loc.6 (and .loc.5 (not .loc.4))))))))
(check-sat)
